mixintcount/benchmarks/random_v2l/7_7_3162.in
28 9
#	x1	x2	x3	x4	x5	x6	x7;		0 = Real; 1 = Integer
	1	1	1	1	1	1	1
1	-7	-8	3	-10	9	10	4	-1113
1	5	6	6	9	5	-4	-2	-154
1	9	10	6	6	2	-4	-6	-365
1	-5	1	1	-3	4	-7	6	-341
1	-5	-4	5	-9	-4	-2	5	-1625
1	-9	0	7	6	5	-5	-7	2790
1	-6	7	-3	4	-10	-1	8	-1557
1	10	-2	3	1	-1	-4	-5	-2415
1	2	8	3	6	-7	-3	5	-831
1	8	1	8	2	4	10	-8	1181
1	6	-3	0	5	7	-2	10	-849
1	4	0	-5	-7	6	0	7	-728
1	-4	0	10	-1	5	4	2	-1546
1	-7	-3	-9	7	-4	-8	3	-2969
1	1	0	0	0	0	0	0	3162
1	-1	0	0	0	0	0	0	3162
1	0	1	0	0	0	0	0	3162
1	0	-1	0	0	0	0	0	3162
1	0	0	1	0	0	0	0	3162
1	0	0	-1	0	0	0	0	3162
1	0	0	0	1	0	0	0	3162
1	0	0	0	-1	0	0	0	3162
1	0	0	0	0	1	0	0	3162
1	0	0	0	0	-1	0	0	3162
1	0	0	0	0	0	1	0	3162
1	0	0	0	0	0	-1	0	3162
1	0	0	0	0	0	0	1	3162
1	0	0	0	0	0	0	-1	3162
